% demand
num_movements = 31;
loading_factor = [950, 1100, 900, 950, 1200, 1300, 1550, 2000, 800, 950, 1250, 1950, 2000, 1350, 1900, 1000, 1250, 1300, 1600, 1900, 1650, 1500, 1500, 800, 1100, 1450, 1250, 800, 1650, 1450, 1400];
pickup_time = [0, 0, 0, 0, 0, 0, 0, 0, 0, 2, 2, 3, 3, 3, 4, 4, 5, 6, 8, 8, 8, 8, 8, 8, 8, 10, 10, 10, 10, 10, 10];
delivery_time = [1, 1, 2, 1, 1, 1, 2, 4, 1, 9, 3, 7, 4, 7, 6, 6, 7, 7, 11, 9, 9, 10, 10, 9, 9, 11, 11, 11, 11, 11, 11];

% transporter definition
total_capacity = 11000;
num_decks = 4;
capacity = [3000, 3000, 1000, 4000];

% ways out of decks
num_ways_out = 2;
paths_out = array3d(decks, ways_out, decks, [
% ways out of deck d1
2, 4, 0, 0, 3, 4, 0, 0, 

% ways out of deck d2
4, 0, 0, 0, 0, 0, 0, 0,	

% ways out of deck d3
4, 0, 0, 0, 0, 0, 0, 0,	

% ways out of deck d4
0, 0, 0, 0,	0, 0, 0, 0,	

]);

